SDVRP instances/custom_instances/p04_20_splitx10_0.vrp
NAME:p04_20_splitx10_
BEST_KNOWN: 0
COMMENT: 0
DIMENSION: 699
CAPACITY: 2000
EDGE_WEIGHT_FORMAT: FUNCTION
EDGE_WEIGHT_TYPE: EXACT_2D
NODE_COORD_SECTION
1 0.00000 0.00000
2 42 -28
3 42 -28
4 42 -28
5 42 -28
6 42 -28
7 48 0
8 48 0
9 48 0
10 48 0
11 48 0
12 48 0
13 11 10
14 11 10
15 11 10
16 11 10
17 -39 14
18 -39 14
19 -39 14
20 -39 14
21 -39 14
22 -39 14
23 -39 14
24 -1 -4
25 -1 -4
26 -1 -4
27 -1 -4
28 -1 -4
29 -1 -4
30 4 -15
31 4 -15
32 4 -15
33 4 -15
34 1 17
35 1 17
36 1 17
37 1 17
38 20 50
39 20 50
40 20 50
41 20 50
42 -4 -27
43 -4 -27
44 -4 -27
45 -4 -27
46 -4 -27
47 -4 -27
48 44 -22
49 44 -22
50 44 -22
51 44 -22
52 44 -22
53 44 -22
54 44 -22
55 47 -38
56 47 -38
57 42 -25
58 42 -25
59 42 -25
60 42 -25
61 42 -25
62 42 -25
63 -23 36
64 -23 36
65 -23 36
66 -23 36
67 -23 36
68 -23 36
69 13 -31
70 13 -31
71 13 -31
72 13 -31
73 13 -31
74 13 -31
75 13 -31
76 42 1
77 42 1
78 42 1
79 -24 -27
80 -24 -27
81 -24 -27
82 -17 44
83 -17 44
84 -17 44
85 -17 44
86 -17 44
87 -17 44
88 -17 44
89 -2 50
90 -2 50
91 -2 50
92 -2 50
93 -2 50
94 -4 20
95 -4 20
96 -4 20
97 -4 20
98 -4 20
99 -4 20
100 26 42
101 26 42
102 26 42
103 26 42
104 26 42
105 26 42
106 45 -14
107 45 -14
108 45 -14
109 45 -14
110 45 -14
111 45 -14
112 45 -14
113 -15 -9
114 -15 -9
115 -15 -9
116 -15 -9
117 -15 -9
118 -15 -9
119 -47 38
120 -47 38
121 -47 38
122 -47 38
123 -47 38
124 46 17
125 46 17
126 46 17
127 46 17
128 46 17
129 46 17
130 46 17
131 46 17
132 -42 -24
133 -42 -24
134 -42 -24
135 -42 -24
136 -42 -24
137 18 -49
138 18 -49
139 18 -49
140 18 -49
141 -19 20
142 -19 20
143 -19 20
144 -19 20
145 -19 20
146 -19 20
147 -19 20
148 -29 28
149 -29 28
150 -29 28
151 -29 28
152 -13 30
153 -13 30
154 -33 -50
155 -33 -50
156 -33 -50
157 -33 -50
158 -33 -50
159 -47 28
160 -47 28
161 -33 34
162 -33 34
163 -33 34
164 -33 34
165 -33 34
166 49 -29
167 49 -29
168 49 -29
169 26 -48
170 26 -48
171 26 -48
172 26 -48
173 -42 26
174 -42 26
175 -42 26
176 42 36
177 42 36
178 42 36
179 42 36
180 27 39
181 27 39
182 27 39
183 29 33
184 29 33
185 29 33
186 29 33
187 13 35
188 13 35
189 13 35
190 13 35
191 13 35
192 13 35
193 13 -46
194 13 -46
195 13 -46
196 -38 27
197 -38 27
198 -38 27
199 -38 27
200 -38 27
201 23 -31
202 23 -31
203 23 -31
204 23 -31
205 23 -31
206 2 42
207 2 42
208 2 42
209 -1 13
210 -1 13
211 -1 13
212 26 19
213 26 19
214 26 19
215 8 -33
216 8 -33
217 8 -33
218 8 -33
219 8 -33
220 8 -33
221 8 -33
222 -16 43
223 -16 43
224 -16 43
225 -16 43
226 -16 43
227 -16 43
228 -16 43
229 -4 -2
230 -4 -2
231 -4 -2
232 -4 -2
233 -4 -2
234 -3 18
235 -3 18
236 -3 18
237 -3 18
238 -3 18
239 46 39
240 46 39
241 46 39
242 46 39
243 -35 10
244 -35 10
245 -35 10
246 -35 10
247 -35 10
248 -17 34
249 -17 34
250 -17 34
251 -17 34
252 -17 34
253 7 32
254 7 32
255 7 32
256 7 32
257 7 32
258 7 32
259 -41 19
260 -41 19
261 -41 19
262 -41 23
263 -41 23
264 -41 23
265 -41 23
266 -41 23
267 -41 23
268 33 24
269 33 24
270 33 24
271 33 24
272 33 24
273 33 24
274 33 24
275 -19 32
276 -19 32
277 -19 32
278 -19 32
279 -19 32
280 -19 32
281 -19 32
282 37 -38
283 37 -38
284 37 -38
285 -45 24
286 -45 24
287 -45 24
288 17 -7
289 17 -7
290 17 -7
291 17 -7
292 44 -31
293 44 -31
294 44 -31
295 44 -31
296 44 -31
297 12 4
298 12 4
299 12 4
300 27 -16
301 27 -16
302 27 -16
303 27 -16
304 27 -16
305 27 -16
306 11 28
307 11 28
308 11 28
309 11 28
310 22 29
311 22 29
312 22 29
313 -23 3
314 -23 3
315 -23 3
316 -23 3
317 -23 3
318 -27 13
319 -27 13
320 -27 13
321 2 -37
322 2 -37
323 2 -37
324 2 -37
325 2 -37
326 2 -37
327 -10 -43
328 -10 -43
329 -10 -43
330 -10 -43
331 -10 -43
332 -10 -43
333 -10 -43
334 31 -33
335 31 -33
336 31 -33
337 31 -33
338 14 20
339 14 20
340 14 20
341 14 20
342 14 20
343 14 20
344 -19 -9
345 -19 -9
346 -19 -9
347 -29 -13
348 -29 -13
349 -29 -13
350 -29 -13
351 -29 -13
352 -29 -13
353 -24 -44
354 -24 -44
355 -24 -44
356 17 26
357 17 26
358 17 26
359 17 26
360 17 26
361 17 26
362 27 35
363 27 35
364 27 35
365 -21 40
366 -21 40
367 -21 40
368 -21 40
369 -21 40
370 -21 40
371 -21 40
372 -4 -43
373 -4 -43
374 -4 -43
375 -4 -43
376 -4 -43
377 -4 -43
378 -4 -43
379 26 -33
380 26 -33
381 26 -33
382 26 -33
383 26 -33
384 26 -33
385 26 -33
386 -25 27
387 -25 27
388 -25 27
389 -25 27
390 43 -20
391 43 -20
392 43 -20
393 43 -20
394 43 -20
395 29 23
396 29 23
397 29 23
398 -7 -26
399 -7 -26
400 -7 -26
401 -7 -26
402 26 46
403 26 46
404 26 46
405 26 46
406 35 -35
407 35 -35
408 35 -35
409 18 36
410 18 36
411 18 36
412 18 36
413 18 36
414 18 36
415 -42 -20
416 -42 -20
417 -42 -20
418 -42 -20
419 -42 -20
420 -42 -20
421 18 11
422 18 11
423 18 11
424 -18 43
425 -18 43
426 -18 43
427 -18 43
428 -18 43
429 -38 18
430 -38 18
431 -38 18
432 -38 18
433 -41 -2
434 -41 -2
435 -41 -2
436 -41 -2
437 -41 -2
438 -41 -2
439 -28 19
440 -28 19
441 -28 19
442 -28 19
443 -28 19
444 -41 13
445 -41 13
446 -41 13
447 2 16
448 2 16
449 2 16
450 2 16
451 -16 -12
452 -16 -12
453 -16 -12
454 31 -12
455 31 -12
456 31 -12
457 31 -12
458 46 -6
459 46 -6
460 46 -6
461 46 -6
462 46 -6
463 46 -6
464 46 -6
465 -11 -27
466 -11 -27
467 -11 -27
468 -11 -27
469 -11 -27
470 -33 6
471 -33 6
472 -33 6
473 -33 6
474 -25 -22
475 -25 -22
476 -25 -22
477 -25 -22
478 21 0
479 21 0
480 21 0
481 21 0
482 21 0
483 21 0
484 -15 48
485 -15 48
486 -15 48
487 -15 48
488 -31 12
489 -31 12
490 44 -32
491 44 -32
492 44 -32
493 44 -32
494 44 -32
495 44 -32
496 -49 26
497 -49 26
498 -49 26
499 -49 26
500 -49 26
501 -49 26
502 17 -21
503 17 -21
504 17 -21
505 17 -21
506 17 17
507 17 17
508 18 -2
509 18 -2
510 -32 36
511 -32 36
512 -32 36
513 -32 36
514 6 -50
515 6 -50
516 6 -50
517 6 -50
518 6 -50
519 6 -50
520 2 12
521 2 12
522 2 12
523 -25 20
524 -25 20
525 -25 20
526 -25 20
527 12 9
528 12 9
529 12 9
530 12 9
531 12 9
532 12 9
533 12 9
534 -11 -12
535 -11 -12
536 -11 -12
537 -11 -12
538 42 38
539 42 38
540 42 38
541 23 23
542 23 23
543 23 23
544 23 23
545 23 23
546 -43 39
547 -43 39
548 -43 39
549 27 -30
550 27 -30
551 27 -30
552 -49 -40
553 -49 -40
554 -49 -40
555 -49 -40
556 -49 -40
557 -24 21
558 -24 21
559 -24 21
560 12 -31
561 12 -31
562 18 34
563 18 34
564 18 34
565 18 34
566 18 34
567 18 34
568 18 34
569 -5 35
570 -5 35
571 40 47
572 40 47
573 40 47
574 40 47
575 30 -19
576 30 -19
577 30 -19
578 30 -19
579 42 37
580 42 37
581 42 37
582 42 37
583 -44 -2
584 -44 -2
585 -44 -2
586 -44 -2
587 -44 -2
588 -44 -2
589 -44 -2
590 23 -7
591 23 -7
592 23 -7
593 23 -7
594 23 -7
595 23 -7
596 -26 39
597 -26 39
598 -26 39
599 -26 39
600 -26 39
601 -26 39
602 -50 24
603 -50 24
604 -50 24
605 -50 24
606 -49 1
607 -49 1
608 -49 1
609 -49 1
610 -49 1
611 -22 4
612 -22 4
613 -22 4
614 -22 4
615 -22 4
616 -22 4
617 -22 4
618 17 22
619 17 22
620 17 22
621 -19 5
622 -19 5
623 -25 26
624 -25 26
625 -2 39
626 -2 39
627 -2 39
628 -2 39
629 -2 39
630 -2 39
631 -2 39
632 -27 12
633 -27 12
634 -27 12
635 -27 12
636 -27 12
637 -27 12
638 -27 12
639 3 21
640 3 21
641 3 21
642 3 21
643 3 21
644 3 21
645 3 21
646 -10 -25
647 -10 -25
648 -10 -25
649 -36 22
650 -36 22
651 -36 22
652 -36 22
653 -33 -23
654 -33 -23
655 -33 -23
656 -36 -32
657 -36 -32
658 -36 -32
659 -36 -32
660 -36 -32
661 -36 -32
662 -36 -32
663 -36 -32
664 9 14
665 9 14
666 42 -7
667 42 -7
668 42 -7
669 42 -7
670 42 -7
671 42 -7
672 42 -7
673 -43 17
674 -43 17
675 -17 -8
676 -17 -8
677 -17 -8
678 -17 -8
679 -17 -8
680 -17 -8
681 -48 -19
682 -48 -19
683 -48 -19
684 28 14
685 28 14
686 28 14
687 28 14
688 -11 28
689 -11 28
690 -11 28
691 -11 28
692 -11 28
693 -11 28
694 -11 28
695 -11 28
696 44 14
697 44 14
698 44 14
699 44 14
DEMAND_SECTION
1 0
2 400
3 100
4 20
5 20
6 20
7 400
8 200
9 100
10 20
11 20
12 20
13 400
14 400
15 100
16 20
17 400
18 200
19 100
20 20
21 20
22 20
23 10
24 400
25 200
26 20
27 20
28 20
29 10
30 400
31 200
32 100
33 10
34 200
35 100
36 20
37 10
38 400
39 200
40 20
41 10
42 400
43 200
44 20
45 20
46 20
47 10
48 400
49 400
50 20
51 20
52 20
53 20
54 10
55 200
56 100
57 400
58 200
59 20
60 20
61 20
62 10
63 400
64 200
65 20
66 20
67 20
68 10
69 400
70 400
71 20
72 20
73 20
74 20
75 10
76 400
77 400
78 10
79 400
80 400
81 200
82 400
83 400
84 100
85 20
86 20
87 20
88 10
89 400
90 200
91 20
92 20
93 20
94 400
95 400
96 20
97 20
98 20
99 20
100 400
101 400
102 20
103 20
104 20
105 10
106 400
107 400
108 100
109 20
110 20
111 20
112 10
113 400
114 200
115 20
116 20
117 20
118 10
119 400
120 100
121 20
122 20
123 10
124 400
125 400
126 100
127 20
128 20
129 20
130 20
131 10
132 400
133 200
134 100
135 20
136 10
137 400
138 400
139 20
140 20
141 400
142 200
143 20
144 20
145 20
146 20
147 10
148 400
149 200
150 100
151 20
152 400
153 400
154 200
155 20
156 20
157 20
158 10
159 200
160 100
161 400
162 100
163 20
164 20
165 20
166 400
167 400
168 20
169 400
170 20
171 20
172 10
173 400
174 100
175 20
176 400
177 200
178 100
179 10
180 400
181 100
182 10
183 400
184 20
185 20
186 10
187 400
188 400
189 100
190 20
191 20
192 10
193 400
194 400
195 200
196 200
197 20
198 20
199 20
200 10
201 200
202 20
203 20
204 20
205 20
206 400
207 100
208 20
209 400
210 20
211 10
212 400
213 20
214 20
215 400
216 400
217 100
218 20
219 20
220 20
221 20
222 400
223 200
224 100
225 20
226 20
227 20
228 20
229 200
230 20
231 20
232 20
233 10
234 200
235 100
236 20
237 20
238 20
239 400
240 20
241 20
242 10
243 400
244 400
245 100
246 20
247 20
248 400
249 200
250 20
251 20
252 20
253 200
254 100
255 20
256 20
257 20
258 10
259 400
260 200
261 10
262 400
263 400
264 20
265 20
266 20
267 10
268 400
269 100
270 20
271 20
272 20
273 20
274 10
275 400
276 200
277 100
278 20
279 20
280 20
281 10
282 400
283 200
284 100
285 400
286 200
287 10
288 200
289 100
290 20
291 10
292 400
293 200
294 20
295 20
296 10
297 400
298 200
299 100
300 400
301 400
302 100
303 20
304 20
305 10
306 400
307 400
308 100
309 20
310 200
311 100
312 20
313 400
314 100
315 20
316 20
317 20
318 400
319 400
320 200
321 400
322 100
323 20
324 20
325 20
326 10
327 400
328 400
329 20
330 20
331 20
332 20
333 10
334 400
335 20
336 20
337 10
338 400
339 100
340 20
341 20
342 20
343 20
344 400
345 200
346 10
347 200
348 20
349 20
350 20
351 20
352 10
353 400
354 100
355 10
356 200
357 20
358 20
359 20
360 20
361 10
362 200
363 100
364 10
365 400
366 200
367 100
368 20
369 20
370 20
371 10
372 400
373 400
374 100
375 20
376 20
377 20
378 10
379 400
380 400
381 100
382 20
383 20
384 20
385 10
386 400
387 400
388 100
389 10
390 400
391 400
392 100
393 20
394 10
395 400
396 20
397 10
398 400
399 100
400 20
401 10
402 400
403 400
404 100
405 20
406 400
407 400
408 20
409 400
410 100
411 20
412 20
413 20
414 20
415 400
416 20
417 20
418 20
419 20
420 10
421 400
422 400
423 100
424 400
425 20
426 20
427 20
428 20
429 400
430 400
431 20
432 10
433 400
434 400
435 100
436 20
437 20
438 20
439 400
440 200
441 20
442 20
443 10
444 200
445 100
446 20
447 400
448 100
449 20
450 10
451 400
452 100
453 10
454 200
455 100
456 20
457 10
458 400
459 100
460 20
461 20
462 20
463 20
464 10
465 400
466 200
467 20
468 20
469 10
470 200
471 100
472 20
473 10
474 400
475 200
476 100
477 20
478 200
479 20
480 20
481 20
482 20
483 10
484 400
485 200
486 100
487 10
488 400
489 20
490 200
491 100
492 20
493 20
494 20
495 20
496 400
497 200
498 100
499 20
500 20
501 10
502 200
503 100
504 20
505 10
506 400
507 10
508 400
509 100
510 200
511 20
512 20
513 10
514 200
515 20
516 20
517 20
518 20
519 10
520 400
521 400
522 200
523 400
524 200
525 20
526 10
527 400
528 400
529 100
530 20
531 20
532 20
533 20
534 400
535 400
536 20
537 10
538 400
539 20
540 10
541 400
542 200
543 20
544 20
545 20
546 400
547 400
548 200
549 400
550 400
551 200
552 400
553 100
554 20
555 20
556 20
557 400
558 20
559 20
560 400
561 10
562 400
563 400
564 100
565 20
566 20
567 20
568 20
569 400
570 200
571 400
572 100
573 20
574 20
575 400
576 200
577 100
578 10
579 400
580 20
581 20
582 20
583 400
584 400
585 20
586 20
587 20
588 20
589 10
590 400
591 200
592 20
593 20
594 20
595 10
596 400
597 200
598 100
599 20
600 20
601 10
602 200
603 100
604 20
605 10
606 400
607 20
608 20
609 20
610 20
611 400
612 200
613 100
614 20
615 20
616 20
617 20
618 400
619 200
620 10
621 200
622 100
623 400
624 200
625 400
626 400
627 100
628 20
629 20
630 20
631 20
632 400
633 200
634 20
635 20
636 20
637 20
638 10
639 400
640 400
641 20
642 20
643 20
644 20
645 10
646 400
647 20
648 10
649 200
650 100
651 20
652 10
653 400
654 100
655 20
656 400
657 400
658 100
659 20
660 20
661 20
662 20
663 10
664 400
665 10
666 400
667 200
668 100
669 20
670 20
671 20
672 20
673 400
674 10
675 400
676 200
677 20
678 20
679 20
680 20
681 400
682 200
683 20
684 400
685 100
686 20
687 10
688 400
689 200
690 100
691 20
692 20
693 20
694 20
695 10
696 400
697 400
698 20
699 20
DEPOT_SECTION
1
-1
EOF