SDVRP instances/custom_instances/p04_20_splitx10_0.sol
698 -4 5 1 2 3 494 490 291 295 293 292 294 57 56 59 61 58 60 -12 13 15 14 532 526 529 530 527 531 528 -18 20 19 16 17 21 22 244 243 242 469 470 472 471 -25 27 28 23 24 536 535 533 534 451 450 452 -26 398 399 400 397 354 353 352 153 155 154 156 157 551 554 552 555 553 653 -29 31 560 559 73 68 71 70 74 69 72 504 502 503 -32 30 42 45 43 44 41 46 467 465 464 466 468 647 645 646 -33 98 97 95 486 483 484 485 82 84 87 86 85 83 81 224 226 227 -35 36 34 642 641 640 643 189 187 188 186 190 191 306 305 -40 37 39 38 401 402 404 403 181 179 -49 53 47 48 50 392 389 390 453 454 456 455 -77 76 75 11 7 9 6 10 8 462 461 459 460 463 669 666 667 -78 79 80 475 476 473 474 228 229 230 232 231 -103 102 104 101 99 100 180 361 362 363 183 182 185 184 309 311 -110 107 106 108 105 111 109 458 457 670 671 668 665 -113 112 116 115 114 117 343 345 344 677 678 674 675 679 676 -142 141 144 145 623 511 512 510 509 163 160 164 162 161 149 150 148 147 -146 143 140 525 522 442 439 438 487 488 -170 169 168 171 138 137 136 139 513 515 516 518 517 514 322 320 -209 208 210 446 449 448 447 519 520 521 -216 215 219 220 214 217 218 193 192 194 324 -223 225 222 221 426 425 423 427 424 366 365 364 367 368 370 369 -234 236 235 237 233 94 93 96 644 639 638 -245 246 444 443 445 672 673 258 259 260 428 430 431 -266 158 159 498 495 500 496 499 497 602 603 601 604 285 286 284 -274 250 251 248 247 249 152 151 689 692 690 -289 290 287 288 299 304 300 303 301 302 575 576 577 574 -297 212 213 267 273 269 272 270 271 268 178 176 177 175 396 395 394 -298 296 507 508 480 479 477 481 478 482 592 589 590 591 593 594 -308 307 409 411 408 410 413 412 562 563 561 567 565 564 566 355 357 360 356 359 358 -310 570 573 572 571 241 240 239 238 537 539 538 578 581 580 579 -315 316 313 312 314 612 610 611 614 616 615 613 621 620 -317 318 319 632 637 631 633 635 636 634 -325 323 321 376 372 375 374 373 377 371 328 331 326 332 329 330 327 -336 334 333 335 489 493 492 491 55 54 166 167 165 51 52 391 393 -338 342 340 341 339 337 617 619 618 505 421 -349 351 346 348 133 131 132 135 134 682 681 680 432 -350 347 415 414 419 417 416 418 661 662 656 657 655 660 659 658 652 654 -381 384 383 379 380 382 378 550 548 549 -385 387 388 386 622 556 558 557 523 524 -405 407 406 283 282 281 201 204 202 203 200 501 -420 422 686 683 211 541 544 540 542 543 506 -429 265 262 261 263 264 172 173 174 650 648 -434 433 436 437 435 586 583 587 582 585 588 584 608 607 605 606 609 -441 440 649 651 195 199 196 198 197 119 122 118 121 120 545 547 546 -595 600 598 597 596 599 63 65 62 66 64 67 280 276 278 277 279 275 688 -625 628 627 624 626 569 568 687 691 694 693 -630 629 88 91 90 92 89 207 206 205 252 255 254 253 256 257 663 664 -684 685 127 128 123 124 126 129 125 130 698 696 697 695 0 





OBJ=
4369.316
BEST_KNOWN=
0.000